470 471 473 
530 531 533 
590 591 593 
650 651 653 
710 711 713 
770 771 773 
830 831 833 
890 891 893 
950 951 953 
1010 1011 1013 
1070 1071 1073 
1130 1131 1133 
1190 1191 1193 
1250 1251 1253 
1310 1311 1313 
1370 1371 1373 
1430 1431 1433 
